20 1 7
370 508 765 491 244 808 575 488 970 912 926 315 102 758 69 157 391 821 666 338 
563 820 564 424 410 734 509 597 423 364 841 144 871 957 635 114 765 209 953 734 
472 231 401 925 988 821 433 730 641 98 67 556 270 982 331 679 715 840 628 137 
555 468 281 426 777 267 891 893 827 844 626 650 74 378 926 61 198 358 790 839 
456 208 746 77 189 76 755 255 267 382 391 822 202 23 599 978 641 489 870 819 
684 847 468 757 577 393 169 774 751 310 964 558 869 709 986 409 137 740 663 403 
474 406 224 27 428 174 356 421 663 577 239 346 775 707 455 351 451 975 125 553 
2850 880 4620 5050 1490 4470 9140 2850 5390 5760 390 120 9810 2630 3900 7610 7880 7450 5330 4500 
46060
